92 49
27 116
11 92
78 23
85 66
55 49
40 15
8 30
55 58
17 153
16 11
20 98
5 109
68 25
71 17
5 175
38 87
31 6
40 56
54 9
49 21
59 55
18 38
12 99
54 36
38 51
55 79
22 118
55 44
28 43
90 15
35 99
13 130
16 13
24 70
2 78
32 24
17 121
11 194
27 124
27 19
34 123
26 94
8 41
25 196
34 26
6 158
63 72
7 188
78 6
25 20
14 37
42 23
47 53
16 112
20 30
54 49
33 41
6 54
8 197
34 91
66 7
88 42
20 100
68 15
35 41
11 168
88 11
13 193
20 77
20 160
82 31
44 89
37 33
17 133
28 56
67 79
85 4
23 151
83 63
95 47
72 28
21 69
16 98
98 17
72 26
18 164
5 157
33 169
39 41
56 65
29 108
55 12
7 132
41 4
21 63
27 132
39 51
14 111
36 93
